#
# This is an example of the driver of `EquiformerV2' <https://github.com/FAIR-Chem/fairchem>,
# which contains a state-of-the-art Graph Neural Network Potential trained with data of Materials Projects.
# This driver is developed by AdvanceSoft Corp <https://www.advancesoft.jp>.
# Before you use this driver, you have to install python3 and fairchem (pip install fairchem-core).
#
# NOTE:
#   1) the units must be metal
#   2) the 3D periodic boundary condition must be used
#   3) cannot use MPI parallelization, only OpenMP or GPU
#   4) cannot calculate virial pressure
#

units         metal
boundary      p p p
atom_style    atomic

pair_style    eqv2 ../../potentials/EQV2
#pair_style    eqv2/d3 ../../potentials/EQV2
#pair_style    eqv2/gpu ../../potentials/EQV2
#pair_style    eqv2/d3/gpu ../../potentials/EQV2

read_data     ./dat.lammps

pair_coeff    * *  EquiformerV2-83M-S2EF-OC20-2M  Zr O

dump          myDump all custom 10 xyz.lammpstrj id element x y z
dump_modify   myDump sort id element Zr O

thermo_style  custom step time cpu pe ke etotal temp
thermo        10

velocity      all create 300.0 12345
fix           myEnse all nvt temp 300.0 300.0 0.1
timestep      5.0e-4
run           10000
