
      39  atoms

       4  atom types

 0.00000000e+00  1.64090000e+01  xlo xhi
 0.00000000e+00  2.08790000e+01  ylo yhi
 0.00000000e+00  1.66580000e+01  zlo zhi

 Atoms

       1        1  6.370756e+00  5.897654e+00  5.922974e+00
       2        2  7.175756e+00  6.979654e+00  6.528974e+00
       3        2  8.591756e+00  6.557654e+00  6.943974e+00
       4        2  6.440756e+00  7.548654e+00  7.759974e+00
       5        3  9.524756e+00  7.228654e+00  7.307974e+00
       6        2  7.036756e+00  8.883654e+00  8.217974e+00
       7        2  6.304756e+00  9.426654e+00  9.449974e+00
       8        2  6.903756e+00  1.075665e+01  9.934974e+00
       9        1  6.635756e+00  1.184165e+01  8.963974e+00
      10        3  8.736756e+00  5.189654e+00  6.842974e+00
      11        4  6.849756e+00  5.491654e+00  5.121974e+00
      12        4  6.209756e+00  5.141654e+00  6.584974e+00
      13        4  7.297756e+00  7.792654e+00  5.754974e+00
      14        4  5.369756e+00  7.683654e+00  7.489974e+00
      15        4  6.447756e+00  6.814654e+00  8.587974e+00
      16        4  6.984756e+00  9.626654e+00  7.395974e+00
      17        4  8.118756e+00  8.764654e+00  8.439974e+00
      18        4  5.226756e+00  9.547654e+00  9.228974e+00
      19        4  6.358756e+00  8.692654e+00  1.027897e+01
      20        4  7.998756e+00  1.064765e+01  1.010997e+01
      21        4  6.467756e+00  1.103465e+01  1.092397e+01
      22        4  5.666756e+00  1.193965e+01  8.657974e+00
      23        2  7.523756e+00  1.283665e+01  8.574974e+00
      24        4  9.642756e+00  4.875654e+00  7.102974e+00
      25        2  8.987756e+00  1.275765e+01  9.020974e+00
      26        3  7.106756e+00  1.371865e+01  7.832974e+00
      27        2  9.850756e+00  1.389265e+01  8.358974e+00
      28        4  9.394756e+00  1.174465e+01  8.767974e+00
      29        2  1.038776e+01  1.470465e+01  9.569974e+00
      30        4  9.186756e+00  1.454265e+01  7.734974e+00
      31        2  1.096176e+01  1.332365e+01  7.488974e+00
      32        2  9.814756e+00  1.397665e+01  1.076597e+01
      33        4  1.004776e+01  1.575465e+01  9.533974e+00
      34        4  1.148976e+01  1.473565e+01  9.600974e+00
      35        4  1.002576e+01  1.430865e+01  1.177997e+01
      36        1  9.075756e+00  1.294765e+01  1.049497e+01
      37        4  1.157176e+01  1.412365e+01  7.051974e+00
      38        4  1.055276e+01  1.274265e+01  6.651974e+00
      39        4  1.163576e+01  1.266565e+01  8.048974e+00

 Masses

       1  1.400674e+01 # N
       2  1.201070e+01 # C
       3  1.599940e+01 # O
       4  1.007940e+00 # H

